Using license file /home/anupa/gurobi.lic
Academic license - for non-commercial use only

Gurobi Optimizer version 9.0.0 build v9.0.0rc2 (linux64)
Optimize a model with 11 rows, 12 columns and 22 nonzeros
Model fingerprint: 0x277446b4
Model has 2 general constraints
Variable types: 12 continuous, 0 integer (0 binary)
Coefficient statistics:
  Matrix range     [1e+00, 1e+02]
  Objective range  [1e+00, 1e+00]
  Bounds range     [1e+00, 6e+02]
  RHS range        [1e+00, 5e+01]

---------------------------------------------------------------------------
Multi-objectives: starting optimization with 8 objectives (5 combined) ...
---------------------------------------------------------------------------

Multi-objectives: applying initial presolve ...
---------------------------------------------------------------------------

Presolve added 4 rows and 4 columns
Presolve time: 0.00s
Presolved: 15 rows and 16 columns
---------------------------------------------------------------------------

Multi-objectives: optimize objective 1 (tot_rows_p4) ...
---------------------------------------------------------------------------

Presolve removed 6 rows and 6 columns
Presolve time: 0.00s
Presolved: 9 rows, 10 columns, 22 nonzeros
Variable types: 8 continuous, 2 integer (2 binary)

Root relaxation: objective 3.000000e+00, 4 iterations, 0.00 seconds

    Nodes    |    Current Node    |     Objective Bounds      |     Work
 Expl Unexpl |  Obj  Depth IntInf | Incumbent    BestBd   Gap | It/Node Time

*    0     0               0       3.0000000    3.00000  0.00%     -    0s

Explored 0 nodes (4 simplex iterations) in 0.00 seconds
Thread count was 12 (of 12 available processors)

Solution count 1: 3 

Optimal solution found (tolerance 1.00e-04)
Best objective 3.000000000000e+00, best bound 3.000000000000e+00, gap 0.0000%
---------------------------------------------------------------------------

Multi-objectives: optimize objective 2 (p4_rows_load) ...
---------------------------------------------------------------------------


Loaded user MIP start with objective 3

Presolve removed 6 rows and 6 columns
Presolve time: 0.00s
Presolved: 10 rows, 10 columns, 24 nonzeros
Variable types: 8 continuous, 2 integer (2 binary)

Root relaxation: objective 1.500000e+00, 3 iterations, 0.00 seconds

    Nodes    |    Current Node    |     Objective Bounds      |     Work
 Expl Unexpl |  Obj  Depth IntInf | Incumbent    BestBd   Gap | It/Node Time

*    0     0               0       1.5000000    1.50000  0.00%     -    0s

Explored 0 nodes (3 simplex iterations) in 0.00 seconds
Thread count was 12 (of 12 available processors)

Solution count 2: 1.5 3 

Optimal solution found (tolerance 1.00e-04)
Best objective 1.500000000000e+00, best bound 1.500000000000e+00, gap 0.0000%
---------------------------------------------------------------------------

Multi-objectives: optimize objective 3 (tot_mem_p4) ...
---------------------------------------------------------------------------


Loaded user MIP start with objective 101.941

Presolve removed 7 rows and 6 columns
Presolve time: 0.00s
Presolved: 10 rows, 10 columns, 24 nonzeros
Variable types: 8 continuous, 2 integer (2 binary)

Root relaxation: cutoff, 2 iterations, 0.00 seconds

    Nodes    |    Current Node    |     Objective Bounds      |     Work
 Expl Unexpl |  Obj  Depth IntInf | Incumbent    BestBd   Gap | It/Node Time

     0     0     cutoff    0       101.94141  101.94141  0.00%     -    0s

Explored 0 nodes (2 simplex iterations) in 0.00 seconds
Thread count was 12 (of 12 available processors)

Solution count 1: 101.941 

Optimal solution found (tolerance 1.00e-04)
Best objective 1.019414062500e+02, best bound 1.019414062500e+02, gap 0.0000%
---------------------------------------------------------------------------

Multi-objectives: optimize objective 4 (p4_load_mem) ...
---------------------------------------------------------------------------


Loaded user MIP start with objective 50.9707

Presolve removed 8 rows and 7 columns
Presolve time: 0.00s
Presolved: 10 rows, 9 columns, 25 nonzeros
Variable types: 7 continuous, 2 integer (2 binary)

Root relaxation: cutoff, 1 iterations, 0.00 seconds

    Nodes    |    Current Node    |     Objective Bounds      |     Work
 Expl Unexpl |  Obj  Depth IntInf | Incumbent    BestBd   Gap | It/Node Time

     0     0     cutoff    0        50.97070   50.97070  0.00%     -    0s

Explored 0 nodes (1 simplex iterations) in 0.00 seconds
Thread count was 12 (of 12 available processors)

Solution count 1: 50.9707 

Optimal solution found (tolerance 1.00e-04)
Best objective 5.097070312500e+01, best bound 5.097070312500e+01, gap 0.0000%
---------------------------------------------------------------------------

Multi-objectives: optimize objective 5 (weighted) ...
---------------------------------------------------------------------------


Loaded user MIP start with objective 0


Explored 0 nodes (0 simplex iterations) in 0.00 seconds
Thread count was 1 (of 12 available processors)

Solution count 1: 0 

Optimal solution found (tolerance 1.00e-04)
Best objective 0.000000000000e+00, best bound 0.000000000000e+00, gap 0.0000%

---------------------------------------------------------------------------
Multi-objectives: solved in 0.00 seconds, solution count 2

--------------------------------------------------
Model update took: 3.0994415283203125e-05 seconds
Model optimize took: 0.003269195556640625 seconds
--------------------------------------------------

Solution quality statistics for model netmon :
  Maximum violation:
    Bound       : 0.00000000e+00
    Constraint  : 0.00000000e+00
    Integrality : 0.00000000e+00

Sketch (0) (cm: eps0: 0.0003125, del0: 0.05, min_mem: 33.98046875)
Par: 1, Rows: 3
0.500    0.500    
Total frac: 1.000

Device (0) p4_1:
Rows total: 1.5
Mem total: 50.970703125

Device (1) p4_2:
Rows total: 1.5
Mem total: 50.970703125
--------------------------------------------------

Throughput: 148.0 Mpps, ns per packet: 6.756756756756757
Resources: 2.873779296875

Sketch (0) (cm: eps0: 0.0003125, del0: 0.05, min_mem: 33.98046875)
Par: 1, Rows: 3
0.500    0.500    
Total frac: 1.000

Device (0) p4_1:
Rows total: 1.5
Mem total: 50.970703125
Throughput: 148.0

Device (1) p4_2:
Rows total: 1.5
Mem total: 50.970703125
Throughput: 148.0
--------------------------------------------------
